WARNING: for repeatability, setting FPU to use double precision
============================[ Problem Statistics ]=============================
|                                                                             |
|  Number of variables:            14                                         |
|  Number of clauses:              49                                         |
|  Parse time:                   0.00 s                                       |
|                                                                             |
============================[ Search Statistics ]==============================
| Conflicts |          ORIGINAL         |          LEARNT          | Progress |
|           |    Vars  Clauses Literals |    Limit  Clauses Lit/Cl |          |
===============================================================================
===============================================================================
restarts              : 1
conflicts             : 2              (760 /sec)
decisions             : 1              (0.00 % random) (380 /sec)
propagations          : 18             (6836 /sec)
conflict literals     : 1              (0.00 % deleted)
Memory used           : 11.00 MB
CPU time              : 0.002633 s

UNSATISFIABLE
